1 1 2 0
1 -1 3 0
1 -1 4 0
1 1 -5 0
1 -6 2 0
1 -6 -3 0
1 -6 -1 0
1 -6 -4 0
1 7 8 0
1 7 -2 0
1 7 -3 0
1 7 -9 0
1 7 4 0
1 -10 8 0
1 10 -2 0
1 -10 -3 0
1 -10 11 0
1 10 -7 0
1 -10 -4 0
1 10 -5 0
1 -3 12 0
1 -3 13 0
1 -3 10 0
1 3 6 0
1 3 -14 0
1 3 -15 0
1 3 16 0
1 -3 7 0
1 3 -1 0
1 3 5 0
1 5 -17 0
1 5 -12 0
1 5 13 0
1 5 -18 0
1 -5 10 0
1 5 -6 0
1 5 15 0
1 -5 16 0
1 5 19 0
1 5 7 0
1 -5 -1 0
1 -2 12 0
1 -2 -10 0
1 -2 6 0
1 -2 -20 0
1 -2 -7 0
1 4 12 0
1 -4 21 0
1 4 -22 0
1 4 -10 0
1 -4 -2 0
1 -4 15 0
1 4 -20 0
1 4 -23 0
1 4 7 0
1 4 1 0
1 4 24 0
1 -19 -18 0
1 -19 3 0
1 -19 9 0
1 -19 23 0
1 18 8 0
1 -18 22 0
1 18 3 0
1 18 -9 0
1 18 -11 0
1 -18 -5 0
1 16 25 0
1 16 -13 0
1 -16 -26 0
1 -16 27 0
1 -16 -9 0
1 -16 11 0
1 -16 -28 0
1 -16 -20 0
1 16 29 0
1 16 -5 0
1 13 -25 0
1 13 8 0
1 -13 21 0
1 -13 27 0
1 -13 3 0
1 -13 9 0
1 -13 -16 0
1 13 -28 0
1 -13 29 0
1 13 5 0
1 11 30 0
1 -11 31 0
1 11 13 0
1 -11 -18 0
1 -11 10 0
1 -11 -32 0
1 -11 -33 0
1 -11 16 0
1 11 -19 0
1 -11 7 0
1 -11 -34 0
1 8 30 0
1 -8 -31 0
1 -8 -13 0
1 -8 -18 0
1 8 10 0
1 8 32 0
1 8 -33 0
1 8 11 0
1 8 -16 0
1 8 19 0
1 -8 -7 0
1 9 35 0
1 -9 12 0
1 -9 13 0
1 -9 10 0
1 9 -32 0
1 -9 -15 0
1 9 -16 0
1 9 7 0
1 9 -34 0
1 25 -12 0
1 -25 -13 0
1 25 -18 0
1 -25 -32 0
1 -25 9 0
1 -25 -36 0
1 25 15 0
1 25 -7 0
1 25 34 0
1 37 31 0
1 -37 8 0
1 -37 -26 0
1 37 -27 0
1 -37 11 0
1 37 -15 0
1 -37 28 0
1 31 -8 0
1 -31 -26 0
1 -31 37 0
1 31 11 0
1 31 28 0
1 -31 -29 0
1 33 8 0
1 33 -27 0
1 33 -36 0
1 -33 11 0
1 -33 -28 0
1 33 -29 0
1 30 35 0
1 -30 8 0
1 30 26 0
1 30 -27 0
1 -30 33 0
1 30 11 0
1 -30 -28 0
1 30 29 0
1 -29 -30 0
1 -29 -13 0
1 29 -27 0
1 -29 -33 0
1 -29 37 0
1 -29 16 0
1 27 -30 0
1 -27 -31 0
1 -27 -13 0
1 27 -33 0
1 27 -37 0
1 27 -16 0
1 -27 29 0
1 -28 30 0
1 28 13 0
1 -28 26 0
1 28 38 0
1 28 32 0
1 -28 33 0
1 -28 37 0
1 -28 16 0
1 -28 -39 0
1 28 -34 0
1 26 -30 0
1 -26 -13 0
1 -26 -38 0
1 -26 -32 0
1 26 -37 0
1 26 16 0
1 -26 -28 0
1 -26 -39 0
1 -23 40 0
1 -23 41 0
1 23 2 0
1 -23 42 0
1 23 -43 0
1 23 19 0
1 23 -4 0
1 -22 -40 0
1 22 18 0
1 -22 2 0
1 22 -42 0
1 22 -43 0
1 -22 4 0
1 20 -40 0
1 -20 -41 0
1 -20 -44 0
1 -20 -42 0
1 -20 -16 0
1 20 43 0
1 20 -45 0
1 20 46 0
1 21 13 0
1 -21 40 0
1 -21 -41 0
1 -21 -47 0
1 -21 44 0
1 21 -42 0
1 -21 -20 0
1 21 45 0
1 21 -46 0
1 21 4 0
1 -41 -43 0
1 -41 35 0
1 -41 12 0
1 -41 -22 0
1 41 15 0
1 41 -20 0
1 -41 -23 0
1 43 35 0
1 -43 12 0
1 43 21 0
1 43 22 0
1 -43 -41 0
1 -43 36 0
1 -43 15 0
1 43 20 0
1 43 -23 0
1 40 21 0
1 40 22 0
1 -40 -42 0
1 -40 20 0
1 42 21 0
1 -42 40 0
1 42 -22 0
1 -42 -20 0
1 15 25 0
1 15 41 0
1 15 -47 0
1 -15 44 0
1 15 2 0
1 -15 3 0
1 -15 9 0
1 15 43 0
1 -15 46 0
1 15 4 0
1 -15 -5 0
1 -12 25 0
1 -12 -47 0
1 12 44 0
1 12 2 0
1 12 3 0
1 -12 -15 0
1 -12 -45 0
1 12 -46 0
1 12 4 0
1 12 -5 0
1 36 -17 0
1 -36 41 0
1 36 47 0
1 36 44 0
1 36 -48 0
1 -36 14 0
1 -36 -9 0
1 -36 33 0
1 -36 45 0
1 -36 24 0
1 35 17 0
1 35 -30 0
1 35 47 0
1 35 -48 0
1 35 14 0
1 35 -9 0
1 -35 -36 0
1 -35 -43 0
1 35 45 0
1 -35 46 0
1 35 24 0
1 44 -35 0
1 -44 -12 0
1 44 21 0
1 -44 38 0
1 44 32 0
1 -44 -36 0
1 -44 15 0
1 -44 20 0
1 44 46 0
1 44 34 0
1 -46 35 0
1 46 -12 0
1 46 -21 0
1 46 -44 0
1 46 38 0
1 46 -32 0
1 -46 36 0
1 46 39 0
1 -46 34 0
1 47 -35 0
1 -47 -12 0
1 47 21 0
1 -47 36 0
1 -47 -15 0
1 47 20 0
1 47 45 0
1 45 -35 0
1 -45 12 0
1 -45 21 0
1 -45 47 0
1 45 36 0
1 45 15 0
1 -45 -20 0
1 -32 17 0
1 -32 25 0
1 32 -8 0
1 -32 -26 0
1 -32 -48 0
1 -32 9 0
1 32 14 0
1 -32 28 0
1 -32 46 0
1 32 -24 0
1 -32 -34 0
1 -34 -25 0
1 34 -17 0
1 34 8 0
1 -34 -26 0
1 -34 44 0
1 -34 32 0
1 -34 11 0
1 -34 46 0
1 34 24 0
1 -38 -26 0
1 38 44 0
1 38 48 0
1 38 14 0
1 -38 -46 0
1 -38 -39 0
1 -38 24 0
1 39 17 0
1 39 -26 0
1 -39 -44 0
1 -39 -14 0
1 39 -28 0
1 39 -24 0
1 -39 46 0
1 14 35 0
1 -14 38 0
1 14 -32 0
1 -14 -3 0
1 14 -36 0
1 14 39 0
1 -17 35 0
1 -17 -32 0
1 17 14 0
1 17 36 0
1 -17 -5 0
1 -17 -39 0
1 17 34 0
1 -48 -35 0
1 48 -38 0
1 48 2 0
1 48 -32 0
1 48 -36 0
1 -48 39 0
1 48 -24 0
1 -48 34 0
1 -24 35 0
1 24 38 0
1 -24 48 0
1 -24 32 0
1 24 -39 0
1 -24 -34 0
